Route #1: 4 30 48 5 29 45 27 52 34 46
Route #2: 8 19 54 13 57 15 37 20 70 60 71 69 36 47 21
Route #3: 74 28 61 22 64 42 41 43 1 73 62 2
Route #4: 33 63 23 56 49 24 18 50 25 55 31 10
Route #5: 38 65 66 11 59 14 53 35 7
Route #6: 16 3 44 32 9 39 72 58 40 12 26
Route #7: 67 17 51 6 68 75
Cost 719